bomb.9.tsp
NAME : GeneratedProblem
COMMENT : SVGCrosshatch
TYPE : TSP
DIMENSION : 11
EDGE_WEIGHT_TYPE : EUC_2D
NODE_COORD_SECTION
1 5600 3800
2 5600 4000
3 6000 4500
4 6300 4100
5 6400 4500
6 6400 4800
7 6400 5400
8 6500 5400
9 6600 5400
10 6800 5000
11 6900 4400
EOF
